# Objective value = 6.0692200000000048e+03
I_0_0 1540
I_0_1 1.8309999999999984e+03
I_0_2 1.8000000000000009e+03
I_0_3 2.4400000000000009e+03
I_1_0 78
I_1_1 78
I_1_2 3.8999999999999972e+01
I_1_3 6.2172489379008766e-15
I_2_0 60
I_2_1 6.0000000000001279e+01
I_2_2 2.9999999999998980e+01
I_2_3 -1.0080825063596421e-12
I_3_0 62
I_3_1 6.1999999999999993e+01
I_3_2 3.1000000000000007e+01
I_3_3 1.2434497875801753e-14
I_4_0 67
I_4_1 0
I_4_2 67
I_4_3 0
I_5_0 166
I_5_1 166
I_5_2 83
I_5_3 0
I_6_0 39
I_6_1 0
I_6_2 39
I_6_3 0
I_7_0 89
I_7_1 0
I_7_2 89
I_7_3 0
I_8_0 89
I_8_1 89
I_8_2 8.8999999999999844e+01
I_8_3 -7.1054273576010019e-14
I_9_0 154
I_9_1 154
I_9_2 77
I_9_3 0
I_10_0 96
I_10_1 0
I_10_2 9.6000000000000014e+01
I_10_3 -5.6843418860808015e-14
q_1_0_0 39
q_1_0_1 0
q_1_0_2 0
q_1_1_0 0
q_1_1_1 -1.7763568394002505e-15
q_1_1_2 3.8191672047105385e-14
q_1_2_0 0
q_1_2_1 0
q_1_2_2 0
q_1_3_0 0
q_1_3_1 0
q_1_3_2 0
q_1_4_0 0
q_1_4_1 0
q_1_4_2 0
q_2_0_0 3.0000000000001279e+01
q_2_0_1 -2.3021584638627246e-12
q_2_0_2 2.6645352591003757e-15
q_2_1_0 0
q_2_1_1 8.8817841970012523e-15
q_2_1_2 9.7699626167013776e-15
q_2_2_0 0
q_2_2_1 -1.7763568394002505e-15
q_2_2_2 0
q_2_3_0 0
q_2_3_1 0
q_2_3_2 0
q_2_4_0 0
q_2_4_1 0
q_2_4_2 0
q_3_0_0 3.0999999999999993e+01
q_3_0_1 0
q_3_0_2 0
q_3_1_0 0
q_3_1_1 1.0658141036401503e-14
q_3_1_2 0
q_3_2_0 0
q_3_2_1 0
q_3_2_2 0
q_3_3_0 0
q_3_3_1 0
q_3_3_2 0
q_3_4_0 0
q_3_4_1 0
q_3_4_2 0
q_4_0_0 0
q_4_0_1 -8.8817841970012523e-15
q_4_0_2 0
q_4_1_0 0
q_4_1_1 1.3400000000000003e+02
q_4_1_2 0
q_4_2_0 0
q_4_2_1 0
q_4_2_2 0
q_4_3_0 0
q_4_3_1 0
q_4_3_2 0
q_4_4_0 0
q_4_4_1 0
q_4_4_2 0
q_5_0_0 83
q_5_0_1 0
q_5_0_2 0
q_5_1_0 0
q_5_1_1 0
q_5_1_2 0
q_5_2_0 0
q_5_2_1 0
q_5_2_2 0
q_5_3_0 0
q_5_3_1 0
q_5_3_2 0
q_5_4_0 0
q_5_4_1 0
q_5_4_2 0
q_6_0_0 0
q_6_0_1 78
q_6_0_2 -2.4602542225693469e-13
q_6_1_0 0
q_6_1_1 0
q_6_1_2 3.0286884111774270e-13
q_6_2_0 0
q_6_2_1 0
q_6_2_2 -2.8421709430404007e-14
q_6_3_0 0
q_6_3_1 0
q_6_3_2 0
q_6_4_0 0
q_6_4_1 0
q_6_4_2 0
q_7_0_0 0
q_7_0_1 0
q_7_0_2 0
q_7_1_0 0
q_7_1_1 1.7763568394002505e-15
q_7_1_2 1.4210854715202004e-14
q_7_2_0 0
q_7_2_1 178
q_7_2_2 0
q_7_3_0 0
q_7_3_1 0
q_7_3_2 0
q_7_4_0 0
q_7_4_1 0
q_7_4_2 0
q_8_0_0 0
q_8_0_1 8.8999999999999886e+01
q_8_0_2 1.8030021919912542e-13
q_8_1_0 89
q_8_1_1 0
q_8_1_2 -8.5265128291212022e-14
q_8_2_0 0
q_8_2_1 0
q_8_2_2 0
q_8_3_0 0
q_8_3_1 0
q_8_3_2 0
q_8_4_0 0
q_8_4_1 0
q_8_4_2 0
q_9_0_0 0
q_9_0_1 0
q_9_0_2 0
q_9_1_0 77
q_9_1_1 0
q_9_1_2 0
q_9_2_0 0
q_9_2_1 0
q_9_2_2 2.8421709430404007e-14
q_9_3_0 0
q_9_3_1 0
q_9_3_2 -2.8421709430404007e-14
q_9_4_0 0
q_9_4_1 3.5527136788005009e-15
q_9_4_2 0
q_10_0_0 0
q_10_0_1 1.4210854715202004e-14
q_10_0_2 2.8421709430404007e-14
q_10_1_0 0
q_10_1_1 0
q_10_1_2 -8.5265128291212022e-14
q_10_2_0 0
q_10_2_1 0
q_10_2_2 0
q_10_3_0 0
q_10_3_1 192
q_10_3_2 2.8421709430404007e-14
q_10_4_0 0
q_10_4_1 0
q_10_4_2 0
y_0_0_0 1
y_0_0_1 1
y_0_0_2 0
y_0_1_0 1
y_0_1_1 1
y_0_1_2 0
y_0_2_0 0
y_0_2_1 1
y_0_2_2 0
y_0_3_0 0
y_0_3_1 1
y_0_3_2 0
y_0_4_0 0
y_0_4_1 0
y_0_4_2 0
y_1_0_0 1
y_1_0_1 -1.1102230246251565e-16
y_1_0_2 0
y_1_1_0 0
y_1_1_1 3.0531133177191805e-16
y_1_1_2 0
y_1_2_0 0
y_1_2_1 0
y_1_2_2 0
y_1_3_0 0
y_1_3_1 0
y_1_3_2 0
y_1_4_0 0
y_1_4_1 0
y_1_4_2 0
y_2_0_0 1.0000000000000426e+00
y_2_0_1 -3.8635761256955448e-14
y_2_0_2 5.5511151231257827e-17
y_2_1_0 0
y_2_1_1 1.1102230246251565e-16
y_2_1_2 0
y_2_2_0 0
y_2_2_1 0
y_2_2_2 0
y_2_3_0 0
y_2_3_1 0
y_2_3_2 0
y_2_4_0 0
y_2_4_1 0
y_2_4_2 0
y_3_0_0 9.9999999999999978e-01
y_3_0_1 0
y_3_0_2 1.6653345369377348e-16
y_3_1_0 0
y_3_1_1 3.0531133177191805e-16
y_3_1_2 0
y_3_2_0 0
y_3_2_1 0
y_3_2_2 0
y_3_3_0 0
y_3_3_1 0
y_3_3_2 0
y_3_4_0 0
y_3_4_1 0
y_3_4_2 0
y_4_0_0 0
y_4_0_1 0
y_4_0_2 0
y_4_1_0 0
y_4_1_1 1
y_4_1_2 0
y_4_2_0 0
y_4_2_1 0
y_4_2_2 0
y_4_3_0 0
y_4_3_1 0
y_4_3_2 0
y_4_4_0 0
y_4_4_1 0
y_4_4_2 0
y_5_0_0 1
y_5_0_1 0
y_5_0_2 0
y_5_1_0 0
y_5_1_1 0
y_5_1_2 0
y_5_2_0 0
y_5_2_1 0
y_5_2_2 0
y_5_3_0 0
y_5_3_1 0
y_5_3_2 0
y_5_4_0 0
y_5_4_1 0
y_5_4_2 0
y_6_0_0 0
y_6_0_1 1
y_6_0_2 0
y_6_1_0 0
y_6_1_1 0
y_6_1_2 0
y_6_2_0 0
y_6_2_1 0
y_6_2_2 0
y_6_3_0 0
y_6_3_1 0
y_6_3_2 0
y_6_4_0 0
y_6_4_1 0
y_6_4_2 0
y_7_0_0 0
y_7_0_1 -1.3877787807814457e-16
y_7_0_2 0
y_7_1_0 0
y_7_1_1 -4.1633363423443370e-17
y_7_1_2 0
y_7_2_0 0
y_7_2_1 1
y_7_2_2 0
y_7_3_0 0
y_7_3_1 0
y_7_3_2 0
y_7_4_0 0
y_7_4_1 0
y_7_4_2 0
y_8_0_0 0
y_8_0_1 1.0000000000000384e+00
y_8_0_2 -5.5511151231257827e-17
y_8_1_0 1
y_8_1_1 0
y_8_1_2 -6.6613381477509392e-16
y_8_2_0 0
y_8_2_1 0
y_8_2_2 0
y_8_3_0 0
y_8_3_1 0
y_8_3_2 0
y_8_4_0 0
y_8_4_1 0
y_8_4_2 0
y_9_0_0 0
y_9_0_1 0
y_9_0_2 0
y_9_1_0 1
y_9_1_1 0
y_9_1_2 0
y_9_2_0 0
y_9_2_1 0
y_9_2_2 0
y_9_3_0 0
y_9_3_1 0
y_9_3_2 0
y_9_4_0 0
y_9_4_1 0
y_9_4_2 0
y_10_0_0 0
y_10_0_1 0
y_10_0_2 1.6653345369377348e-16
y_10_1_0 0
y_10_1_1 -2.7755575615628914e-17
y_10_1_2 -6.6613381477509392e-16
y_10_2_0 0
y_10_2_1 0
y_10_2_2 0
y_10_3_0 0
y_10_3_1 1
y_10_3_2 0
y_10_4_0 0
y_10_4_1 0
y_10_4_2 0
x_0_1_0_0 1.3877787807814457e-16
x_0_1_0_1 0
x_0_1_0_2 0
x_0_1_1_0 0
x_0_1_1_1 0
x_0_1_1_2 0
x_0_1_2_0 0
x_0_1_2_1 0
x_0_1_2_2 0
x_0_1_3_0 0
x_0_1_3_1 0
x_0_1_3_2 0
x_0_1_4_0 0
x_0_1_4_1 0
x_0_1_4_2 0
x_0_2_0_0 1.0000000000000426e+00
x_0_2_0_1 -7.72715225139109e-14
x_0_2_0_2 1.1102230246251565e-16
x_0_2_1_0 0
x_0_2_1_1 1.1102230246251565e-16
x_0_2_1_2 0
x_0_2_2_0 0
x_0_2_2_1 6.6613381477509392e-16
x_0_2_2_2 0
x_0_2_3_0 0
x_0_2_3_1 0
x_0_2_3_2 0
x_0_2_4_0 0
x_0_2_4_1 0
x_0_2_4_2 0
x_0_3_0_0 -4.2535419630951310e-14
x_0_3_0_1 0
x_0_3_0_2 0
x_0_3_1_0 0
x_0_3_1_1 0
x_0_3_1_2 0
x_0_3_2_0 0
x_0_3_2_1 0
x_0_3_2_2 0
x_0_3_3_0 0
x_0_3_3_1 0
x_0_3_3_2 0
x_0_3_4_0 0
x_0_3_4_1 0
x_0_3_4_2 0
x_0_4_0_0 0
x_0_4_0_1 1.1102230246251565e-16
x_0_4_0_2 0
x_0_4_1_0 0
x_0_4_1_1 2
x_0_4_1_2 0
x_0_4_2_0 0
x_0_4_2_1 -4.1633363423443370e-17
x_0_4_2_2 0
x_0_4_3_0 0
x_0_4_3_1 0
x_0_4_3_2 0
x_0_4_4_0 0
x_0_4_4_1 0
x_0_4_4_2 0
x_0_5_0_0 1
x_0_5_0_1 0
x_0_5_0_2 0
x_0_5_1_0 0
x_0_5_1_1 0
x_0_5_1_2 0
x_0_5_2_0 0
x_0_5_2_1 0
x_0_5_2_2 0
x_0_5_3_0 0
x_0_5_3_1 0
x_0_5_3_2 0
x_0_5_4_0 0
x_0_5_4_1 0
x_0_5_4_2 0
x_0_6_0_0 0
x_0_6_0_1 1
x_0_6_0_2 0
x_0_6_1_0 0
x_0_6_1_1 0
x_0_6_1_2 0
x_0_6_2_0 0
x_0_6_2_1 0
x_0_6_2_2 0
x_0_6_3_0 0
x_0_6_3_1 0
x_0_6_3_2 0
x_0_6_4_0 0
x_0_6_4_1 0
x_0_6_4_2 1.7069679003611782e-14
x_0_7_0_0 0
x_0_7_0_1 -2.7755575615628914e-16
x_0_7_0_2 0
x_0_7_1_0 0
x_0_7_1_1 0
x_0_7_1_2 8.8817841970012523e-16
x_0_7_2_0 0
x_0_7_2_1 2.0000000000000009e+00
x_0_7_2_2 0
x_0_7_3_0 0
x_0_7_3_1 0
x_0_7_3_2 0
x_0_7_4_0 0
x_0_7_4_1 5.5511151231257827e-17
x_0_7_4_2 0
x_0_8_0_0 0
x_0_8_0_1 1.0000000000000773e+00
x_0_8_0_2 -1.1102230246251565e-16
x_0_8_1_0 1
x_0_8_1_1 0
x_0_8_1_2 -1.3322676295501878e-15
x_0_8_2_0 0
x_0_8_2_1 0
x_0_8_2_2 0
x_0_8_3_0 0
x_0_8_3_1 0
x_0_8_3_2 0
x_0_8_4_0 0
x_0_8_4_1 0
x_0_8_4_2 -1.7069679003611782e-14
x_0_9_0_0 0
x_0_9_0_1 0
x_0_9_0_2 0
x_0_9_1_0 1
x_0_9_1_1 -5.5511151231257827e-17
x_0_9_1_2 0
x_0_9_2_0 0
x_0_9_2_1 0
x_0_9_2_2 0
x_0_9_3_0 0
x_0_9_3_1 0
x_0_9_3_2 0
x_0_9_4_0 0
x_0_9_4_1 0
x_0_9_4_2 0
x_0_10_0_0 0
x_0_10_0_1 4.4408920985006262e-16
x_0_10_0_2 0
x_0_10_1_0 0
x_0_10_1_1 0
x_0_10_1_2 0
x_0_10_2_0 0
x_0_10_2_1 -5.5511151231257827e-17
x_0_10_2_2 0
x_0_10_3_0 0
x_0_10_3_1 2
x_0_10_3_2 0
x_0_10_4_0 0
x_0_10_4_1 -5.5511151231257827e-17
x_0_10_4_2 0
x_1_2_0_0 0
x_1_2_0_1 0
x_1_2_0_2 0
x_1_2_1_0 0
x_1_2_1_1 0
x_1_2_1_2 0
x_1_2_2_0 0
x_1_2_2_1 0
x_1_2_2_2 0
x_1_2_3_0 0
x_1_2_3_1 0
x_1_2_3_2 0
x_1_2_4_0 0
x_1_2_4_1 0
x_1_2_4_2 0
x_1_3_0_0 9.9999999999999978e-01
x_1_3_0_1 0
x_1_3_0_2 1.1102230246251565e-16
x_1_3_1_0 0
x_1_3_1_1 3.4694469519536142e-16
x_1_3_1_2 0
x_1_3_2_0 0
x_1_3_2_1 0
x_1_3_2_2 0
x_1_3_3_0 0
x_1_3_3_1 0
x_1_3_3_2 0
x_1_3_4_0 0
x_1_3_4_1 0
x_1_3_4_2 0
x_1_4_0_0 0
x_1_4_0_1 -1.1102230246251565e-16
x_1_4_0_2 5.5511151231257827e-17
x_1_4_1_0 0
x_1_4_1_1 3.0531133177191805e-16
x_1_4_1_2 0
x_1_4_2_0 0
x_1_4_2_1 0
x_1_4_2_2 0
x_1_4_3_0 0
x_1_4_3_1 0
x_1_4_3_2 0
x_1_4_4_0 0
x_1_4_4_1 0
x_1_4_4_2 0
x_1_5_0_0 1
x_1_5_0_1 0
x_1_5_0_2 0
x_1_5_1_0 0
x_1_5_1_1 0
x_1_5_1_2 0
x_1_5_2_0 0
x_1_5_2_1 0
x_1_5_2_2 0
x_1_5_3_0 0
x_1_5_3_1 0
x_1_5_3_2 0
x_1_5_4_0 0
x_1_5_4_1 0
x_1_5_4_2 0
x_1_6_0_0 0
x_1_6_0_1 0
x_1_6_0_2 0
x_1_6_1_0 0
x_1_6_1_1 0
x_1_6_1_2 0
x_1_6_2_0 0
x_1_6_2_1 0
x_1_6_2_2 0
x_1_6_3_0 0
x_1_6_3_1 0
x_1_6_3_2 0
x_1_6_4_0 0
x_1_6_4_1 0
x_1_6_4_2 0
x_1_7_0_0 0
x_1_7_0_1 0
x_1_7_0_2 0
x_1_7_1_0 0
x_1_7_1_1 0
x_1_7_1_2 0
x_1_7_2_0 0
x_1_7_2_1 0
x_1_7_2_2 0
x_1_7_3_0 0
x_1_7_3_1 0
x_1_7_3_2 0
x_1_7_4_0 0
x_1_7_4_1 0
x_1_7_4_2 0
x_1_8_0_0 0
x_1_8_0_1 0
x_1_8_0_2 0
x_1_8_1_0 0
x_1_8_1_1 0
x_1_8_1_2 0
x_1_8_2_0 0
x_1_8_2_1 0
x_1_8_2_2 0
x_1_8_3_0 0
x_1_8_3_1 0
x_1_8_3_2 0
x_1_8_4_0 0
x_1_8_4_1 0
x_1_8_4_2 0
x_1_9_0_0 0
x_1_9_0_1 0
x_1_9_0_2 0
x_1_9_1_0 0
x_1_9_1_1 0
x_1_9_1_2 0
x_1_9_2_0 0
x_1_9_2_1 0
x_1_9_2_2 0
x_1_9_3_0 0
x_1_9_3_1 0
x_1_9_3_2 0
x_1_9_4_0 0
x_1_9_4_1 0
x_1_9_4_2 0
x_1_10_0_0 0
x_1_10_0_1 -1.1102230246251565e-16
x_1_10_0_2 0
x_1_10_1_0 0
x_1_10_1_1 0
x_1_10_1_2 0
x_1_10_2_0 0
x_1_10_2_1 0
x_1_10_2_2 0
x_1_10_3_0 0
x_1_10_3_1 0
x_1_10_3_2 0
x_1_10_4_0 0
x_1_10_4_1 0
x_1_10_4_2 0
x_2_3_0_0 1.0000000000000426e+00
x_2_3_0_1 0
x_2_3_0_2 0
x_2_3_1_0 0
x_2_3_1_1 0
x_2_3_1_2 0
x_2_3_2_0 0
x_2_3_2_1 0
x_2_3_2_2 0
x_2_3_3_0 0
x_2_3_3_1 0
x_2_3_3_2 0
x_2_3_4_0 0
x_2_3_4_1 0
x_2_3_4_2 0
x_2_4_0_0 0
x_2_4_0_1 0
x_2_4_0_2 0
x_2_4_1_0 0
x_2_4_1_1 0
x_2_4_1_2 0
x_2_4_2_0 0
x_2_4_2_1 0
x_2_4_2_2 0
x_2_4_3_0 0
x_2_4_3_1 0
x_2_4_3_2 0
x_2_4_4_0 0
x_2_4_4_1 0
x_2_4_4_2 0
x_2_5_0_0 0
x_2_5_0_1 0
x_2_5_0_2 0
x_2_5_1_0 0
x_2_5_1_1 0
x_2_5_1_2 0
x_2_5_2_0 0
x_2_5_2_1 0
x_2_5_2_2 0
x_2_5_3_0 0
x_2_5_3_1 0
x_2_5_3_2 0
x_2_5_4_0 0
x_2_5_4_1 0
x_2_5_4_2 0
x_2_6_0_0 0
x_2_6_0_1 0
x_2_6_0_2 0
x_2_6_1_0 0
x_2_6_1_1 0
x_2_6_1_2 0
x_2_6_2_0 0
x_2_6_2_1 0
x_2_6_2_2 0
x_2_6_3_0 0
x_2_6_3_1 0
x_2_6_3_2 0
x_2_6_4_0 0
x_2_6_4_1 0
x_2_6_4_2 0
x_2_7_0_0 0
x_2_7_0_1 0
x_2_7_0_2 0
x_2_7_1_0 0
x_2_7_1_1 0
x_2_7_1_2 0
x_2_7_2_0 0
x_2_7_2_1 -3.8857805861880479e-16
x_2_7_2_2 0
x_2_7_3_0 0
x_2_7_3_1 0
x_2_7_3_2 0
x_2_7_4_0 0
x_2_7_4_1 0
x_2_7_4_2 0
x_2_8_0_0 0
x_2_8_0_1 0
x_2_8_0_2 0
x_2_8_1_0 0
x_2_8_1_1 0
x_2_8_1_2 0
x_2_8_2_0 0
x_2_8_2_1 0
x_2_8_2_2 0
x_2_8_3_0 0
x_2_8_3_1 0
x_2_8_3_2 0
x_2_8_4_0 0
x_2_8_4_1 0
x_2_8_4_2 0
x_2_9_0_0 0
x_2_9_0_1 0
x_2_9_0_2 0
x_2_9_1_0 0
x_2_9_1_1 0
x_2_9_1_2 0
x_2_9_2_0 0
x_2_9_2_1 0
x_2_9_2_2 0
x_2_9_3_0 0
x_2_9_3_1 0
x_2_9_3_2 0
x_2_9_4_0 0
x_2_9_4_1 0
x_2_9_4_2 0
x_2_10_0_0 0
x_2_10_0_1 0
x_2_10_0_2 0
x_2_10_1_0 0
x_2_10_1_1 0
x_2_10_1_2 0
x_2_10_2_0 0
x_2_10_2_1 0
x_2_10_2_2 0
x_2_10_3_0 0
x_2_10_3_1 0
x_2_10_3_2 0
x_2_10_4_0 0
x_2_10_4_1 0
x_2_10_4_2 0
x_3_4_0_0 0
x_3_4_0_1 0
x_3_4_0_2 -5.5511151231257827e-17
x_3_4_1_0 0
x_3_4_1_1 3.0531133177191805e-16
x_3_4_1_2 0
x_3_4_2_0 0
x_3_4_2_1 0
x_3_4_2_2 0
x_3_4_3_0 0
x_3_4_3_1 0
x_3_4_3_2 0
x_3_4_4_0 0
x_3_4_4_1 0
x_3_4_4_2 0
x_3_5_0_0 0
x_3_5_0_1 0
x_3_5_0_2 0
x_3_5_1_0 0
x_3_5_1_1 0
x_3_5_1_2 0
x_3_5_2_0 0
x_3_5_2_1 0
x_3_5_2_2 0
x_3_5_3_0 0
x_3_5_3_1 0
x_3_5_3_2 0
x_3_5_4_0 0
x_3_5_4_1 0
x_3_5_4_2 0
x_3_6_0_0 0
x_3_6_0_1 0
x_3_6_0_2 0
x_3_6_1_0 0
x_3_6_1_1 0
x_3_6_1_2 0
x_3_6_2_0 0
x_3_6_2_1 0
x_3_6_2_2 0
x_3_6_3_0 0
x_3_6_3_1 0
x_3_6_3_2 0
x_3_6_4_0 0
x_3_6_4_1 0
x_3_6_4_2 0
x_3_7_0_0 0
x_3_7_0_1 0
x_3_7_0_2 0
x_3_7_1_0 0
x_3_7_1_1 0
x_3_7_1_2 0
x_3_7_2_0 0
x_3_7_2_1 0
x_3_7_2_2 0
x_3_7_3_0 0
x_3_7_3_1 0
x_3_7_3_2 0
x_3_7_4_0 0
x_3_7_4_1 0
x_3_7_4_2 0
x_3_8_0_0 0
x_3_8_0_1 0
x_3_8_0_2 0
x_3_8_1_0 0
x_3_8_1_1 0
x_3_8_1_2 0
x_3_8_2_0 0
x_3_8_2_1 0
x_3_8_2_2 0
x_3_8_3_0 0
x_3_8_3_1 0
x_3_8_3_2 0
x_3_8_4_0 0
x_3_8_4_1 0
x_3_8_4_2 0
x_3_9_0_0 0
x_3_9_0_1 0
x_3_9_0_2 0
x_3_9_1_0 0
x_3_9_1_1 0
x_3_9_1_2 0
x_3_9_2_0 0
x_3_9_2_1 0
x_3_9_2_2 0
x_3_9_3_0 0
x_3_9_3_1 0
x_3_9_3_2 0
x_3_9_4_0 0
x_3_9_4_1 0
x_3_9_4_2 0
x_3_10_0_0 0
x_3_10_0_1 0
x_3_10_0_2 3.3306690738754696e-16
x_3_10_1_0 0
x_3_10_1_1 -2.7755575615628914e-17
x_3_10_1_2 0
x_3_10_2_0 0
x_3_10_2_1 2.7755575615628914e-17
x_3_10_2_2 0
x_3_10_3_0 0
x_3_10_3_1 0
x_3_10_3_2 0
x_3_10_4_0 0
x_3_10_4_1 0
x_3_10_4_2 0
x_4_5_0_0 0
x_4_5_0_1 0
x_4_5_0_2 0
x_4_5_1_0 0
x_4_5_1_1 0
x_4_5_1_2 0
x_4_5_2_0 0
x_4_5_2_1 0
x_4_5_2_2 0
x_4_5_3_0 0
x_4_5_3_1 0
x_4_5_3_2 0
x_4_5_4_0 0
x_4_5_4_1 0
x_4_5_4_2 0
x_4_6_0_0 0
x_4_6_0_1 0
x_4_6_0_2 0
x_4_6_1_0 0
x_4_6_1_1 0
x_4_6_1_2 0
x_4_6_2_0 0
x_4_6_2_1 0
x_4_6_2_2 0
x_4_6_3_0 0
x_4_6_3_1 0
x_4_6_3_2 0
x_4_6_4_0 0
x_4_6_4_1 0
x_4_6_4_2 0
x_4_7_0_0 0
x_4_7_0_1 0
x_4_7_0_2 0
x_4_7_1_0 0
x_4_7_1_1 0
x_4_7_1_2 0
x_4_7_2_0 0
x_4_7_2_1 0
x_4_7_2_2 0
x_4_7_3_0 0
x_4_7_3_1 0
x_4_7_3_2 0
x_4_7_4_0 0
x_4_7_4_1 0
x_4_7_4_2 0
x_4_8_0_0 0
x_4_8_0_1 0
x_4_8_0_2 0
x_4_8_1_0 0
x_4_8_1_1 0
x_4_8_1_2 0
x_4_8_2_0 0
x_4_8_2_1 0
x_4_8_2_2 0
x_4_8_3_0 0
x_4_8_3_1 0
x_4_8_3_2 0
x_4_8_4_0 0
x_4_8_4_1 0
x_4_8_4_2 0
x_4_9_0_0 0
x_4_9_0_1 0
x_4_9_0_2 0
x_4_9_1_0 0
x_4_9_1_1 0
x_4_9_1_2 0
x_4_9_2_0 0
x_4_9_2_1 0
x_4_9_2_2 0
x_4_9_3_0 0
x_4_9_3_1 0
x_4_9_3_2 0
x_4_9_4_0 0
x_4_9_4_1 0
x_4_9_4_2 0
x_4_10_0_0 0
x_4_10_0_1 0
x_4_10_0_2 0
x_4_10_1_0 0
x_4_10_1_1 0
x_4_10_1_2 0
x_4_10_2_0 0
x_4_10_2_1 2.7755575615628914e-17
x_4_10_2_2 0
x_4_10_3_0 0
x_4_10_3_1 0
x_4_10_3_2 0
x_4_10_4_0 0
x_4_10_4_1 0
x_4_10_4_2 0
x_5_6_0_0 0
x_5_6_0_1 0
x_5_6_0_2 0
x_5_6_1_0 0
x_5_6_1_1 0
x_5_6_1_2 0
x_5_6_2_0 0
x_5_6_2_1 0
x_5_6_2_2 0
x_5_6_3_0 0
x_5_6_3_1 0
x_5_6_3_2 0
x_5_6_4_0 0
x_5_6_4_1 0
x_5_6_4_2 0
x_5_7_0_0 0
x_5_7_0_1 0
x_5_7_0_2 0
x_5_7_1_0 0
x_5_7_1_1 0
x_5_7_1_2 0
x_5_7_2_0 0
x_5_7_2_1 0
x_5_7_2_2 0
x_5_7_3_0 0
x_5_7_3_1 0
x_5_7_3_2 0
x_5_7_4_0 0
x_5_7_4_1 0
x_5_7_4_2 0
x_5_8_0_0 0
x_5_8_0_1 0
x_5_8_0_2 0
x_5_8_1_0 0
x_5_8_1_1 0
x_5_8_1_2 0
x_5_8_2_0 0
x_5_8_2_1 0
x_5_8_2_2 0
x_5_8_3_0 0
x_5_8_3_1 0
x_5_8_3_2 0
x_5_8_4_0 0
x_5_8_4_1 0
x_5_8_4_2 0
x_5_9_0_0 0
x_5_9_0_1 0
x_5_9_0_2 0
x_5_9_1_0 0
x_5_9_1_1 0
x_5_9_1_2 0
x_5_9_2_0 0
x_5_9_2_1 0
x_5_9_2_2 0
x_5_9_3_0 0
x_5_9_3_1 0
x_5_9_3_2 0
x_5_9_4_0 0
x_5_9_4_1 0
x_5_9_4_2 0
x_5_10_0_0 0
x_5_10_0_1 0
x_5_10_0_2 0
x_5_10_1_0 0
x_5_10_1_1 0
x_5_10_1_2 0
x_5_10_2_0 0
x_5_10_2_1 0
x_5_10_2_2 0
x_5_10_3_0 0
x_5_10_3_1 0
x_5_10_3_2 0
x_5_10_4_0 0
x_5_10_4_1 0
x_5_10_4_2 0
x_6_7_0_0 0
x_6_7_0_1 0
x_6_7_0_2 0
x_6_7_1_0 0
x_6_7_1_1 0
x_6_7_1_2 0
x_6_7_2_0 0
x_6_7_2_1 0
x_6_7_2_2 0
x_6_7_3_0 0
x_6_7_3_1 0
x_6_7_3_2 0
x_6_7_4_0 0
x_6_7_4_1 0
x_6_7_4_2 0
x_6_8_0_0 0
x_6_8_0_1 1
x_6_8_0_2 0
x_6_8_1_0 0
x_6_8_1_1 0
x_6_8_1_2 0
x_6_8_2_0 0
x_6_8_2_1 0
x_6_8_2_2 0
x_6_8_3_0 0
x_6_8_3_1 0
x_6_8_3_2 0
x_6_8_4_0 0
x_6_8_4_1 0
x_6_8_4_2 -1.7069679003611782e-14
x_6_9_0_0 0
x_6_9_0_1 0
x_6_9_0_2 0
x_6_9_1_0 0
x_6_9_1_1 0
x_6_9_1_2 0
x_6_9_2_0 0
x_6_9_2_1 0
x_6_9_2_2 0
x_6_9_3_0 0
x_6_9_3_1 0
x_6_9_3_2 0
x_6_9_4_0 0
x_6_9_4_1 0
x_6_9_4_2 0
x_6_10_0_0 0
x_6_10_0_1 0
x_6_10_0_2 0
x_6_10_1_0 0
x_6_10_1_1 0
x_6_10_1_2 0
x_6_10_2_0 0
x_6_10_2_1 0
x_6_10_2_2 0
x_6_10_3_0 0
x_6_10_3_1 0
x_6_10_3_2 0
x_6_10_4_0 0
x_6_10_4_1 0
x_6_10_4_2 0
x_7_8_0_0 0
x_7_8_0_1 0
x_7_8_0_2 0
x_7_8_1_0 0
x_7_8_1_1 0
x_7_8_1_2 0
x_7_8_2_0 0
x_7_8_2_1 0
x_7_8_2_2 0
x_7_8_3_0 0
x_7_8_3_1 0
x_7_8_3_2 0
x_7_8_4_0 0
x_7_8_4_1 0
x_7_8_4_2 0
x_7_9_0_0 0
x_7_9_0_1 0
x_7_9_0_2 0
x_7_9_1_0 0
x_7_9_1_1 5.5511151231257827e-17
x_7_9_1_2 0
x_7_9_2_0 0
x_7_9_2_1 0
x_7_9_2_2 0
x_7_9_3_0 0
x_7_9_3_1 0
x_7_9_3_2 0
x_7_9_4_0 0
x_7_9_4_1 -5.5511151231257827e-17
x_7_9_4_2 0
x_7_10_0_0 0
x_7_10_0_1 0
x_7_10_0_2 0
x_7_10_1_0 0
x_7_10_1_1 -2.7755575615628914e-17
x_7_10_1_2 -8.8817841970012523e-16
x_7_10_2_0 0
x_7_10_2_1 2.7755575615628914e-17
x_7_10_2_2 0
x_7_10_3_0 0
x_7_10_3_1 0
x_7_10_3_2 0
x_7_10_4_0 0
x_7_10_4_1 0
x_7_10_4_2 0
x_8_9_0_0 0
x_8_9_0_1 0
x_8_9_0_2 0
x_8_9_1_0 1
x_8_9_1_1 0
x_8_9_1_2 0
x_8_9_2_0 0
x_8_9_2_1 0
x_8_9_2_2 0
x_8_9_3_0 0
x_8_9_3_1 0
x_8_9_3_2 0
x_8_9_4_0 0
x_8_9_4_1 0
x_8_9_4_2 0
x_8_10_0_0 0
x_8_10_0_1 0
x_8_10_0_2 0
x_8_10_1_0 0
x_8_10_1_1 0
x_8_10_1_2 0
x_8_10_2_0 0
x_8_10_2_1 0
x_8_10_2_2 0
x_8_10_3_0 0
x_8_10_3_1 0
x_8_10_3_2 0
x_8_10_4_0 0
x_8_10_4_1 0
x_8_10_4_2 0
x_9_10_0_0 0
x_9_10_0_1 0
x_9_10_0_2 0
x_9_10_1_0 0
x_9_10_1_1 0
x_9_10_1_2 0
x_9_10_2_0 0
x_9_10_2_1 0
x_9_10_2_2 0
x_9_10_3_0 0
x_9_10_3_1 0
x_9_10_3_2 0
x_9_10_4_0 0
x_9_10_4_1 5.5511151231257827e-17
x_9_10_4_2 0
